62
62
63
63
63
63
63
63
63
63
63
63
63
63
63
63
63
63
63
63
63
63
63
63
63
63
63
63
63
63
64
64
64
64
64
64
64
64
64
64
64
64
64
64
64
64
64
64
64
64
64
64
64
64
64
64
64
64
65
65
65
65
65
65
65
65
65
65
65
65
65
65
65
65
65
65
65
65
65
65
65
65
65
65
65
66
66
66
66
66
66
66
66
66
66
66
66
66
66
66
66
66
66
66
66
66
66
66
66
66
66
67
67
67
67
67
67
67
67
67
67
67
67
67
67
67
67
67
67
67
67
67
67
67
67
67
68
68
68
68
68
68
68
68
68
68
68
68
68
68
68
68
68
68
68
68
68
68
68
68
68
69
69
69
69
69
69
69
69
69
69
69
69
69
69
69
69
69
69
69
69
69
69
69
69
70
70
70
70
70
70
70
70
70
70
70
70
70
70
70
70
70
70
70
70
70
70
70
71
71
71
71
71
71
71
71
71
71
71
71
71
71
71
71
71
71
71
71
71
71
71
72
72
72
72
72
72
72
72
72
72
72
72
72
72
72
72
72
72
72
72
72
72
72
73
73
73
73
73
73
73
73
73
73
73
73
73
73
73
73
73
73
73
73
73
74
74
74
74
74
74
74
74
74
74
74
74
74
74
74
74
74
74
74
74
74
75
75
75
75
75
75
75
75
75
75
75
75
75
75
75
75
75
75
75
75
75
76
76
76
76
76
76
76
76
76
76
76
76
76
76
76
76
76
76
76
76
77
77
77
77
77
77
77
77
77
77
77
77
77
77
77
77
77
77
77
77
78
78
78
78
78
78
78
78
78
78
78
78
78
78
78
78
78
78
78
79
79
79
79
79
79
79
79
79
79
79
79
79
79
79
79
79
79
79
80
80
80
80
80
80
80
80
80
80
80
80
80
80
80
80
80
80
81
81
81
81
81
81
81
81
81
81
81
81
81
81
81
81
81
81
82
82
82
82
82
82
82
82
82
82
82
82
82
82
82
82
82
82
83
83
83
83
83
83
83
83
83
83
83
83
83
83
83
83
83
84
84
84
84
84
84
84
84
84
84
84
84
84
84
84
84
84
85
85
85
85
85
85
85
85
85
85
85
85
85
85
85
85
86
86
86
86
86
86
86
86
86
86
86
86
86
86
86
86
87
87
87
87
87
87
87
87
87
87
87
87
87
87
87
87
88
88
88
88
88
88
88
88
88
88
88
88
88
88
88
88
89
89
89
89
89
89
89
89
89
89
89
89
89
89
89
90
90
90
90
90
90
90
90
90
90
90
90
90
90
91
91
91
91
91
91
91
91
91
91
91
91
91
91
91
92
92
92
92
92
92
92
92
92
92
92
92
92
92
93
93
93
93
93
93
93
93
93
93
93
93
93
93
94
94
94
94
94
94
94
94
94
94
94
94
94
94
95
95
95
95
95
95
95
95
95
95
95
95
95
96
96
96
96
96
96
96
96
96
96
96
96
96
97
97
97
97
97
97
97
97
97
97
97
97
97
98
98
98
98
98
98
98
98
98
98
98
98
98
99
99
99
99
99
99
99
99
99
99
99
99
100
100
100
100
100
100
100
100
100
100
100
100
101
101
101
101
101
101
101
101
101
101
101
101
102
102
102
102
102
102
102
102
102
102
102
102
103
103
103
103
103
103
103
103
103
103
103
104
104
104
104
104
104
104
104
104
104
104
104
105
105
105
105
105
105
105
105
105
105
105
106
106
106
106
106
106
106
106
106
106
106
107
107
107
107
107
107
107
107
107
107
108
108
108
108
108
108
108
108
108
108
108
109
109
109
109
109
109
109
109
109
109
110
110
110
110
110
110
110
110
110
110
111
111
111
111
111
111
111
111
111
111
112
112
112
112
112
112
112
112
112
112
113
113
113
113
113
113
113
113
113
113
114
114
114
114
114
114
114
114
114
115
115
115
115
115
115
115
115
115
115
116
116
116
116
116
116
116
116
116
117
117
117
117
117
117
117
117
117
118
118
118
118
118
118
118
118
118
119
119
119
119
119
119
119
119
120
120
120
120
120
120
120
120
120
121
121
121
121
121
121
121
121
122
122
122
122
122
122
122
122
122
123
123
123
123
123
123
123
123
124
124
124
124
124
124
124
124
125
125
125
125
125
125
125
125
126
126
126
126
126
126
126
126
127
127
127
127
127
127
127
127
128
128
128
128
128
128
128
129
129
129
129
129
129
129
129
130
130
130
130
130
130
130
131
131
131
131
131
131
131
131
132
132
132
132
132
132
132
133
133
133
133
133
133
133
134
134
134
134
134
134
134
135
135
135
135
135
135
135
136
136
136
136
136
136
136
137
137
137
137
137
137
138
138
138
138
138
138
138
139
139
139
139
139
139
140
140
140
140
140
140
140
141
141
141
141
141
141
142
142
142
142
142
142
143
143
143
143
143
143
143
144
144
144
144
144
144
145
145
145
145
145
145
146
146
146
146
146
146
147
147
147
147
147
148
148
148
148
148
148
149
149
149
149
149
149
150
150
150
150
150
150
151
151
151
151
151
152
152
152
152
152
152
153
153
153
153
153
154
154
154
154
154
155
155
155
155
155
155
156
156
156
156
156
157
157
157
157
157
158
158
158
158
158
159
159
159
159
159
160
160
160
160
160
161
161
161
161
161
162
162
162
162
162
163
163
163
163
163
164
164
164
164
164
165
165
165
165
166
166
166
166
166
167
167
167
167
167
168
168
168
168
169
169
169
169
169
170
170
170
170
171
171
171
171
172
172
172
172
172
173
173
173
173
174
174
174
174
175
175
175
175
176
176
176
176
176
177
177
177
177
178
178
178
178
179
179
179
179
180
180
180
180
181
181
181
181
182
182
182
182
183
183
183
184
184
184
184
185
185
185
185
186
186
186
186
187
187
187
188
188
188
188
189
189
189
189
190
190
190
191
191
191
191
192
192
192
193
193
193
193
194
194
194
195
195
195
195
196
196
196
197
197
197
198
198
198
198
199
199
199
200
200
200
201
201
201
202
202
202
203
203
203
203
204
204
204
205
205
205
206
206
206
207
207
207
208
208
208
209
209
209
210
210
210
211
211
211
212
212
212
213
213
214
214
214
215
215
215
216
216
216
217
217
217
218
218
219
219
219
220
220
220
221
221
221
222
222
223
223
223
224
224
225
225
225
226
226
226
227
227
228
228
228
229
229
230
230
230
231
231
232
232
233
233
233
234
234
235
235
235
236
236
237
237
238
238
238
239
239
240
240
241
241
242
242
242
243
243
244
244
245
245
246
246
247
247
247
248
248
249
249
250
250
251
251
252
252
253
253
254
254
255
255
256
256
257
257
258
258
259
259
260
260
261
261
262
262
263
263
264
264
265
265
266
267
267
268
268
269
269
270
270
271
272
272
273
273
274
274
275
275
276
277
277
278
278
279
280
280
281
281
282
283
283
284
284
285
286
286
287
287
288
289
289
290
291
291
292
293
293
294
295
295
296
297
297
298
299
299
300
301
301
302
303
303
304
305
305
306
307
308
308
309
310
310
311
312
313
313
314
315
316
316
317
318
319
319
320
321
322
322
323
324
325
326
326
327
328
329
330
331
331
332
333
334
335
336
336
337
338
339
340
341
342
342
343
344
345
346
347
348
349
350
351
351
352
353
354
355
356
357
358
359
360
361
362
363
364
365
366
367
368
369
370
371
372
373
374
375
376
377
378
379
381
382
383
384
385
386
387
388
389
391
392
393
394
395
396
398
399
400
401
402
404
405
406
407
408
410
411
412
413
415
416
417
419
420
421
423
424
425
427
428
429
431
432
434
435
436
438
439
441
442
444
445
447
448
450
451
453
454
456
457
459
460
462
463
465
467
468
470
472
473
475
477
478
480
482
483
485
487
489
491
492
494
496
498
500
501
503
505
507
509
511
513
515
517
519
521
523
525
527
529
531
533
535
537
540
542
544
546
548
551
553
555
557
560
562
564
567
569
572
574
576
579
581
584
587
589
592
594
597
600
602
605
608
610
613
616
619
622
624
627
630
633
636
639
642
645
648
651
655
658
661
664
667
671
674
678
681
684
688
691
695
698
702
706
709
713
717
721
725
728
732
736
740
744
749
753
757
761
765
770
774
779
783
788
792
797
801
806
811
816
821
826
831
836
841
846
852
857
862
868
874
879
885
891
897
902
909
915
921
927
933
940
946
953
960
966
973
980
987
995
1002
1009
1017
1025
1032
1040
1048
1056
1065
1073
1081
1090
1099
1108
1117
1126
1135
1145
1155
1164
1174
1185
1195
1205
1216
1227
1238
1250
1261
1273
1285
1297
1309
1322
1335
1348
1361
1375
1389
1403
1418
1433
1448
1463
1479
1495
1512
1529
1546
1564
1582
1600
1619
1638
1658
1678
1699
1721
1742
1765
1788
1811
1836
1861
1886
1912
1939
1967
1996
2025
2056
2087
2119
2152
2187
2222
2258
2296
2335
2376
2417
2461
2505
2552
2600
2650
2703
2757
2813
2872
2933
2997
3064
3133
3206
3283
3363
3447
3536
3629
3728
3831
3941
4057
4180
4311
4450
4599
4758
4928
5110
5307
5520
5750
6000
6273
6572
6901
7265
7669
8120
8628
9204
9862
10621
11507
12553
13809
15344
17263
19730
23019
27625
34532
46045
69071
138149
